c WARNING: for repeatability, setting FPU to use double precision
c Problem Statistics:
c
c [33mBenchmark Information[0m
c Number of variables: 293
c Number of clauses: 570
c Number of literals: 1307
c Parse time: 0.00
c
c
c Backbone simplification
c The number of unit literal found is: 5
c Time to realize the backbone simplification: 0.000309
c
c [33mCollect Bi-Partition Procedure[0m
c Time to sort the selector: 0.000144
c Number of input variables computed: 27
c Time to compute the bi-partition: 0.002517
c
c Number of variables forgotten: 146
c Number of iterations: 2
c
c Vivification, total time: 0.000262
c Vivification, number of clauses removed: 146
c Vivification, number of literals removed: 40
c
c Occurrence Elimination, total time: 0.000268
c Occurrence Elimination, number of literals removed: 0
c Time used for the preprocessing step: 0.000939
c
p cnf 293 327
-37 46 0
-37 -57 68 0
102 -86 57 -66 0
102 37 -86 -46 -66 0
66 -68 0
-77 -68 86 0
56 -67 271 -107 -87 0
-86 102 77 0
-46 37 77 -66 0
66 -77 86 0
66 -77 108 -97 0
56 -67 76 0
97 -102 0
97 -104 0
-67 56 -87 96 0
106 -108 0
127 -117 -108 0
-266 107 0
137 -127 104 -106 0
-271 116 0
-127 137 117 0
-266 -136 281 -116 0
-266 -116 126 0
-271 -146 284 -126 0
-271 -126 136 0
161 -281 163 -154 0
-281 146 0
154 -155 0
171 -161 -155 0
171 -284 -161 0
171 -162 155 0
-163 162 0
161 -171 162 0
-163 161 -171 0
146 -171 162 163 -154 0
-284 -162 -161 0
68 -57 46 0
-46 37 57 0
-68 -77 108 -97 0
-96 67 266 -76 0
-87 -107 271 76 0
77 57 -66 0
86 -97 108 0
-96 87 266 0
96 -107 271 0
-102 -104 0
106 127 -117 0
-136 -116 281 107 0
116 -146 284 -126 0
117 104 -106 0
-136 126 281 0
-108 104 0
136 -146 284 0
161 146 163 -154 0
171 154 -161 0
-284 154 0
-284 -155 0
-281 -171 162 -154 0
-56 -67 266 271 -76 -96 -107 0
67 -76 87 0
-87 76 96 0
-266 96 0
-271 107 0
126 107 -116 0
116 -126 136 0
-281 136 0
-284 146 0
-161 154 -162 0
-155 162 0
36 0
-178 0
206 0
207 0
208 0
209 0
210 0
211 0
212 0
213 0
214 0
215 0
216 0
217 0
218 0
219 0
220 0
221 0
222 0
223 0
224 0
225 0
226 0
227 0
228 0
229 0
230 0
231 0
232 0
233 0
234 0
235 0
236 0
-1 0
-2 0
-3 0
-4 0
-5 0
-6 0
-7 0
-8 0
-9 0
-10 0
-11 0
-12 0
-13 0
-14 0
-15 0
-16 0
-17 0
-18 0
-19 0
-20 0
-21 0
-22 0
-23 0
-24 0
-25 0
-26 0
-27 0
-28 0
-29 0
-30 0
-31 0
-176 0
-177 0
-292 0
-40 0
41 0
-293 0
-42 0
43 0
-240 0
-179 0
-180 0
-181 0
-182 0
-183 0
-184 0
-185 0
-186 0
-187 0
-188 0
-189 0
-190 0
-191 0
-192 0
-193 0
-194 0
-195 0
-196 0
-197 0
-198 0
-199 0
-200 0
-201 0
-202 0
-203 0
-204 0
-205 0
-54 0
-241 0
237 0
34 0
-35 0
-32 0
33 0
-238 0
-38 0
-45 0
-53 0
-149 0
c The variables forgot
55 0
39 0
279 0
244 0
243 0
239 0
44 0
291 0
290 0
289 0
288 0
287 0
286 0
280 0
278 0
276 0
275 0
274 0
272 0
270 0
269 0
268 0
267 0
265 0
264 0
262 0
261 0
260 0
259 0
258 0
255 0
254 0
253 0
252 0
251 0
249 0
247 0
246 0
245 0
175 0
173 0
170 0
168 0
166 0
165 0
167 0
164 0
172 0
174 0
160 0
49 0
48 0
51 0
50 0
61 0
63 0
62 0
69 0
71 0
73 0
75 0
79 0
81 0
83 0
85 0
89 0
91 0
93 0
95 0
99 0
101 0
103 0
105 0
109 0
111 0
113 0
115 0
119 0
121 0
123 0
125 0
129 0
131 0
133 0
135 0
139 0
141 0
143 0
145 0
70 0
74 0
151 0
153 0
156 0
158 0
59 0
60 0
80 0
82 0
84 0
88 0
142 0
58 0
92 0
65 0
98 0
140 0
138 0
147 0
248 0
132 0
148 0
130 0
128 0
124 0
122 0
47 0
52 0
242 0
114 0
120 0
112 0
72 0
250 0
78 0
150 0
144 0
94 0
100 0
134 0
157 0
159 0
64 0
90 0
110 0
118 0
169 0
152 0
257 0
277 0
263 0
273 0
285 0
283 0
282 0
256 0
c The number of literals is: 213
c The number of variables is: 35
